122 5
10 10 10 10 10 

0 0 0 0 0 0 1 2 
0 0 0 0 0 0 1 3 
4 0 0 0 1 0 2 6 4 
9 0 0 0 3 0 1 5 
6 0 0 0 4 0 2 9 7 
7 0 0 0 10 0 2 12 7 
9 0 0 0 6 0 1 8 
5 0 0 0 2 0 1 10 
2 0 0 0 8 0 1 10 
4 0 0 0 6 0 1 11 
9 0 0 0 6 0 1 13 
2 0 0 0 4 0 1 13 
0 0 0 0 0 0 2 14 26 
0 0 0 0 0 0 2 15 18 
2 0 0 1 0 0 2 24 16 
8 0 0 7 0 0 1 17 
1 0 0 4 0 0 2 23 19 
4 0 0 5 0 0 3 24 23 22 
8 0 0 9 0 0 1 20 
7 0 0 4 0 0 1 21 
9 0 0 5 0 0 1 22 
9 0 0 5 0 0 1 25 
9 0 0 6 0 0 2 25 65 
10 0 0 4 0 0 1 25 
0 0 0 0 0 0 1 38 
0 0 0 0 0 0 2 27 30 
5 0 0 0 0 1 2 34 28 
5 0 0 0 0 4 1 29 
3 0 0 0 0 7 2 36 31 
8 0 0 0 0 9 3 36 34 33 
1 0 0 0 0 6 1 32 
2 0 0 0 0 3 2 33 56 
3 0 0 0 0 5 1 35 
9 0 0 0 0 3 1 35 
1 0 0 0 0 4 1 37 
8 0 0 0 0 8 1 37 
0 0 0 0 0 0 1 38 
0 0 0 0 0 0 5 39 51 63 75 87 
0 0 0 0 0 0 3 40 43 49 
9 1 0 0 0 0 2 48 41 
7 10 0 0 0 0 1 42 
1 9 0 0 0 0 1 44 
5 3 0 0 0 0 2 44 65 
2 3 0 0 0 0 1 45 
8 8 0 0 0 0 1 46 
6 5 0 0 0 0 1 47 
5 2 0 0 0 0 1 50 
2 4 0 0 0 0 1 50 
3 5 0 0 0 0 1 50 
0 0 0 0 0 0 1 99 
0 0 0 0 0 0 1 52 
2 0 0 0 1 0 1 53 
8 0 0 0 6 0 2 54 94 
4 0 0 0 4 0 2 58 55 
3 0 0 0 4 0 3 61 60 56 
8 0 0 0 8 0 1 57 
4 0 0 0 5 0 1 59 
9 0 0 0 5 0 1 60 
5 0 0 0 7 0 1 62 
10 0 0 0 2 0 1 62 
2 0 0 0 8 0 1 62 
0 0 0 0 0 0 1 99 
0 0 0 0 0 0 2 64 65 
7 0 0 1 0 0 2 69 66 
4 0 0 5 0 0 2 69 68 
9 0 0 8 0 0 1 67 
4 0 0 5 0 0 1 68 
4 0 0 8 0 0 2 73 70 
1 0 0 8 0 0 2 73 71 
4 0 0 4 0 0 1 71 
4 0 0 4 0 0 1 72 
1 0 0 5 0 0 2 74 95 
9 0 0 2 0 0 1 74 
0 0 0 0 0 0 1 99 
0 0 0 0 0 0 2 76 85 
6 0 0 4 0 0 1 77 
6 0 0 1 0 0 1 78 
3 0 0 7 0 0 2 82 79 
10 0 0 10 0 0 1 80 
4 0 0 4 0 0 1 81 
3 0 0 7 0 0 2 83 96 
10 0 0 6 0 0 1 84 
7 0 0 3 0 0 1 86 
10 0 0 4 0 0 1 86 
8 0 0 4 0 0 1 86 
0 0 0 0 0 0 1 99 
0 0 0 0 0 0 2 88 90 
1 1 0 0 0 0 2 94 89 
4 6 0 0 0 0 1 91 
8 9 0 0 0 0 2 94 93 
8 3 0 0 0 0 1 92 
2 3 0 0 0 0 1 93 
7 5 0 0 0 0 2 97 95 
4 4 0 0 0 0 2 97 96 
10 5 0 0 0 0 1 96 
10 7 0 0 0 0 1 98 
2 7 0 0 0 0 1 98 
0 0 0 0 0 0 1 99 
0 0 0 0 0 0 1 100 
3 0 0 1 0 0 1 101 
10 0 0 5 0 0 1 102 
7 0 0 6 0 0 2 105 103 
1 0 0 7 0 0 1 104 
7 0 0 8 0 0 2 107 106 
1 0 0 2 0 0 1 106 
3 0 0 8 0 0 2 109 108 
4 0 0 5 0 0 1 108 
8 0 0 3 0 0 1 110 
6 0 0 5 0 0 1 110 
0 0 0 0 0 0 1 111 
0 0 0 0 0 0 3 112 113 116 
2 3 0 0 0 0 1 114 
2 2 0 0 0 0 1 114 
2 4 0 0 0 0 2 121 115 
3 5 0 0 0 0 1 117 
9 10 0 0 0 0 2 121 119 
7 3 0 0 0 0 1 118 
8 6 0 0 0 0 1 119 
2 6 0 0 0 0 1 120 
8 4 0 0 0 0 1 122 
7 7 0 0 0 0 1 122 
0 0 0 0 0 0 0 
